385,360
589,691
609,458
624,388
321,46
576,261
868,311
891,406
741,406
681,346
681,136
947,213
657,389
539,452
668,432
657,389
681,376
639,140
470,697
626,577
663,463
705,423
668,432
741,406
1108,545
891,406
744,469
626,577
